proyfinal/src/viki/013/experimentInOfficeAgust.take6.output/d4e84655-1a2b-47bc-9bbd-ccaac887731c.als.dat
{'cnf.clauses': '118081',
 'cnf.totvars': '69608',
 'conflict literals': '145',
 'conflicts': '30',
 'decisions': '3468',
 'memused.mb': '18.45',
 'outcome': 'UNSAT',
 'propagations': '67853',
 'restarts': '1',
 'solver.msecs': 29,
 'task.msecs': 149}
