proyfinal/src/viki/013/experimentInOfficeAgust.take6.output/d4e84655-1a2b-47bc-9bbd-ccaac887731c.als.out
Reading from standard input... Use '--help' for help.
============================[ Problem Statistics ]=============================
|                                                                             |
|  Number of variables:         69608                                         |
|  Number of clauses:          118081                                         |
|  Parse time:                   0.02 s                                       |
|                                                                             |
============================[ Search Statistics ]==============================
| Conflicts |          ORIGINAL         |          LEARNT          | Progress |
|           |    Vars  Clauses Literals |    Limit  Clauses Lit/Cl |          |
===============================================================================
===============================================================================
restarts              : 1
conflicts             : 30             (1018 /sec)
decisions             : 3468           (0.00 % random) (117727 /sec)
propagations          : 67853          (2303381 /sec)
conflict literals     : 145            (17.14 % deleted)
Memory used           : 18.45 MB
CPU time              : 0.029458 s

UNSATISFIABLE
